c Generated map
c Size: 8 * 8, weights in range: 1 to 10, walls: True, with ratio 0.05
c dim 5 of 9
c
p sp 64 102
c graph contains 64 nodes and 102 arcs
c
a 1 9 8
a 9 1 8
a 1 2 7
a 2 1 7
a 2 10 7
a 10 2 7
a 2 3 3
a 3 2 3
a 3 11 4
a 11 3 4
a 3 4 1
a 4 3 1
a 4 12 10
a 12 4 10
a 4 5 5
a 5 4 5
a 5 13 7
a 13 5 7
a 5 6 9
a 6 5 9
a 6 14 1
a 14 6 1
a 6 7 10
a 7 6 10
a 7 15 8
a 15 7 8
a 7 8 8
a 8 7 8
a 8 16 1
a 16 8 1
a 9 17 6
a 17 9 6
a 9 10 2
a 10 9 2
a 10 18 7
a 18 10 7
a 10 11 3
a 11 10 3
a 11 19 6
a 19 11 6
a 11 12 7
a 12 11 7
a 12 20 3
a 20 12 3
a 12 13 10
a 13 12 10
a 13 21 6
a 21 13 6
a 13 14 6
a 14 13 6
a 14 22 4
a 22 14 4
a 14 15 9
a 15 14 9
a 15 23 4
a 23 15 4
a 15 16 1
a 16 15 1
a 16 24 4
a 24 16 4
a 17 18 5
a 18 17 5
a 18 19 7
a 19 18 7
a 19 27 10
a 27 19 10
a 19 20 5
a 20 19 5
a 20 28 2
a 28 20 2
a 20 21 9
a 21 20 9
a 21 29 4
a 29 21 4
a 21 22 9
a 22 21 9
a 22 30 5
a 30 22 5
a 22 23 2
a 23 22 2
a 23 31 10
a 31 23 10
a 23 24 9
a 24 23 9
a 24 32 5
a 32 24 5
a 27 35 4
a 35 27 4
a 27 28 3
a 28 27 3
a 28 36 7
a 36 28 7
a 28 29 9
a 29 28 9
a 29 37 2
a 37 29 2
a 29 30 5
a 30 29 5
a 30 38 4
a 38 30 4
a 30 31 5
a 31 30 5
a 31 39 4
a 39 31 4
a 31 32 9
a 32 31 9
a 32 40 7
a 40 32 7
a 33 41 8
a 41 33 8
a 33 34 4
a 34 33 4
a 34 42 5
a 42 34 5
a 34 35 8
a 35 34 8
a 35 43 8
a 43 35 8
a 35 36 10
a 36 35 10
a 36 44 5
a 44 36 5
a 36 37 10
a 37 36 10
a 37 45 9
a 45 37 9
a 37 38 6
a 38 37 6
a 38 39 1
a 39 38 1
a 39 47 3
a 47 39 3
a 39 40 7
a 40 39 7
a 40 48 2
a 48 40 2
a 41 49 1
a 49 41 1
a 41 42 9
a 42 41 9
a 42 50 7
a 50 42 7
a 42 43 6
a 43 42 6
a 43 51 6
a 51 43 6
a 43 44 7
a 44 43 7
a 44 52 3
a 52 44 3
a 44 45 2
a 45 44 2
a 45 53 10
a 53 45 10
a 47 55 9
a 55 47 9
a 47 48 6
a 48 47 6
a 48 56 4
a 56 48 4
a 49 57 10
a 57 49 10
a 49 50 4
a 50 49 4
a 50 58 1
a 58 50 1
a 50 51 4
a 51 50 4
a 51 59 2
a 59 51 2
a 51 52 8
a 52 51 8
a 52 60 8
a 60 52 8
a 52 53 2
a 53 52 2
a 53 61 5
a 61 53 5
a 53 54 7
a 54 53 7
a 54 62 5
a 62 54 5
a 54 55 3
a 55 54 3
a 55 63 10
a 63 55 10
a 55 56 4
a 56 55 4
a 56 64 7
a 64 56 7
a 57 58 4
a 58 57 4
a 58 59 5
a 59 58 5
a 59 60 3
a 60 59 3
a 60 61 8
a 61 60 8
a 61 62 8
a 62 61 8
a 62 63 8
a 63 62 8
a 63 64 9
a 64 63 9
